results_rootrelaxation/bin012_060_044.srr.sol
solution status: optimal solution found
objective value:                     1.10526315789474
_var765_                            0.815789473684211 	(obj:0)
_var770_                            0.526315789473685 	(obj:0)
_var779_                            0.342105263157895 	(obj:0)
_var797_                           0.0263157894736843 	(obj:0)
_var810_                            0.131578947368421 	(obj:0)
_var811_                            0.552631578947368 	(obj:0)
_var813_                            0.105263157894737 	(obj:0)
_var815_                            0.368421052631579 	(obj:0)
_var828_                             0.31578947368421 	(obj:1)
_var829_                           0.0526315789473685 	(obj:0)
_var844_                            0.105263157894737 	(obj:0)
_var846_                            0.131578947368421 	(obj:0)
_var847_                            0.131578947368421 	(obj:1)
_var854_                            0.157894736842105 	(obj:0)
_var856_                            0.289473684210526 	(obj:0)
_var857_                           0.0526315789473685 	(obj:0)
_var871_                           0.0263157894736841 	(obj:0)
_var884_                            0.131578947368421 	(obj:0)
_var894_                            0.394736842105263 	(obj:0)
_var895_                            0.157894736842105 	(obj:0)
_var896_                            0.894736842105263 	(obj:0)
_var900_                            0.105263157894737 	(obj:0)
_var904_                            0.315789473684211 	(obj:0)
_var906_                            0.184210526315789 	(obj:0)
_var912_                            0.263157894736842 	(obj:0)
_var921_                            0.342105263157895 	(obj:0)
_var924_                            0.289473684210527 	(obj:0)
_var925_                            0.157894736842106 	(obj:0)
_var930_                            0.552631578947369 	(obj:0)
_var933_                            0.394736842105263 	(obj:0)
_var937_                            0.289473684210526 	(obj:0)
_var938_                            0.473684210526316 	(obj:0)
_var940_                            0.157894736842105 	(obj:1)
_var943_                           0.0526315789473684 	(obj:0)
_var944_                            0.184210526315789 	(obj:0)
_var948_                            0.105263157894737 	(obj:1)
_var951_                           0.0263157894736842 	(obj:1)
_var956_                            0.105263157894737 	(obj:1)
_var957_                           0.0526315789473684 	(obj:0)
_var962_                           0.0526315789473684 	(obj:1)
_var963_                            0.157894736842105 	(obj:0)
_var964_                           0.0526315789473686 	(obj:0)
_var965_                            0.105263157894737 	(obj:0)
_var966_                           0.0789473684210528 	(obj:0)
_var967_                           0.0263157894736846 	(obj:1)
_var969_                           0.0263157894736839 	(obj:0)
_var970_                            0.105263157894737 	(obj:0)
_var974_                            0.184210526315789 	(obj:1)
_var975_                           0.0526315789473686 	(obj:0)
_var978_                            0.105263157894737 	(obj:0)
_var980_                           0.0263157894736839 	(obj:0)
_var981_                            0.131578947368421 	(obj:0)
_var983_                           0.0526315789473685 	(obj:0)
_var984_                           0.0789473684210523 	(obj:0)
