results_rootrelaxation/bin012_060_044.srr.log
SCIP version 8.0.3.5 [precision: 8 byte] [memory: block] [mode: optimized] [LP solver: Soplex 6.0.1.3] [GitHash: 438792519e]
Copyright (c) 2002-2023 Zuse Institute Berlin (ZIB)

External libraries: 
  Readline 8.1         GNU library for command line editing (gnu.org/s/readline)
  Soplex 6.0.1.3       Linear Programming Solver developed at Zuse Institute Berlin (soplex.zib.de) [GitHash: 713be0fe]
  CppAD 20180000.0     Algorithmic Differentiation of C++ algorithms developed by B. Bell (github.com/coin-or/CppAD)
  ZLIB 1.2.11          General purpose compression library by J. Gailly and M. Adler (zlib.net)
  bliss 0.77           Computing Graph Automorphism Groups by T. Junttila and P. Kaski (www.tcs.hut.fi/Software/bliss/)

user parameter file <scip.set> not found - using default parameters

srr/relaxation = TRUE

read problem <instances/bin012_060_044.srr>
============

Original problem: 
original problem has 0 variables (0 bin, 0 int, 0 impl, 0 cont) and 77 constraints

presolving:
presolving (1 rounds: 1 fast, 1 medium, 1 exhaustive):
 0 deleted vars, 0 deleted constraints, 0 added constraints, 0 tightened bounds, 0 added holes, 0 changed sides, 0 changed coefficients
 0 implications, 0 cliques
presolved problem has 0 variables (0 bin, 0 int, 0 impl, 0 cont) and 77 constraints
     77 constraints of type <linear>
Presolving Time: 0.00

 time | node  | left  |LP iter|LP it/n|mem/heur|mdpt |vars |cons |rows |cuts |sepa|confs|strbr|  dualbound   | primalbound  |  gap   | compl. 
  0.0s|     1 |     0 |     1 |     - |   710k |   0 |   1 |  77 |  77 |   0 |  0 |   0 |   0 |      --      |      --      |    Inf | unknown
r 0.1s|     1 |     0 |   937 |     - |simplero|   0 | 731 |  77 |  77 |   0 |  0 |   0 |   0 |      --      | 2.031792e+01 |    Inf | unknown
r 0.1s|     1 |     0 |   980 |     - |simplero|   0 | 742 |  77 |  77 |   0 |  0 |   0 |   0 |      --      | 1.965058e+01 |    Inf | unknown
r 0.1s|     1 |     0 |  1023 |     - |simplero|   0 | 753 |  77 |  77 |   0 |  0 |   0 |   0 |      --      | 1.883766e+01 |    Inf | unknown
r 0.1s|     1 |     0 |  1089 |     - |simplero|   0 | 764 |  77 |  77 |   0 |  0 |   0 |   0 |      --      | 1.652698e+01 |    Inf | unknown
r 0.1s|     1 |     0 |  1167 |     - |simplero|   0 | 775 |  77 |  77 |   0 |  0 |   0 |   0 |      --      | 1.352730e+01 |    Inf | unknown
r 0.1s|     1 |     0 |  1277 |     - |simplero|   0 | 786 |  77 |  77 |   0 |  0 |   0 |   0 |      --      | 1.121480e+01 |    Inf | unknown
r 0.1s|     1 |     0 |  1338 |     - |simplero|   0 | 797 |  77 |  77 |   0 |  0 |   0 |   0 |      --      | 9.575972e+00 |    Inf | unknown
r 0.1s|     1 |     0 |  1409 |     - |simplero|   0 | 808 |  77 |  77 |   0 |  0 |   0 |   0 |      --      | 8.010081e+00 |    Inf | unknown
r 0.1s|     1 |     0 |  1462 |     - |simplero|   0 | 819 |  77 |  77 |   0 |  0 |   0 |   0 |      --      | 6.612630e+00 |    Inf | unknown
r 0.1s|     1 |     0 |  1480 |     - |simplero|   0 | 819 |  77 |  77 |   0 |  0 |   0 |   0 |      --      | 6.483278e+00 |    Inf | unknown
r 0.1s|     1 |     0 |  1490 |     - |simplero|   0 | 819 |  77 |  77 |   0 |  0 |   0 |   0 |      --      | 6.468380e+00 |    Inf | unknown
r 0.1s|     1 |     0 |  1532 |     - |simplero|   0 | 830 |  77 |  77 |   0 |  0 |   0 |   0 |      --      | 5.280972e+00 |    Inf | unknown
r 0.1s|     1 |     0 |  1543 |     - |simplero|   0 | 830 |  77 |  77 |   0 |  0 |   0 |   0 |      --      | 5.245440e+00 |    Inf | unknown
r 0.1s|     1 |     0 |  1589 |     - |simplero|   0 | 841 |  77 |  77 |   0 |  0 |   0 |   0 |      --      | 4.647817e+00 |    Inf | unknown
 time | node  | left  |LP iter|LP it/n|mem/heur|mdpt |vars |cons |rows |cuts |sepa|confs|strbr|  dualbound   | primalbound  |  gap   | compl. 
r 0.1s|     1 |     0 |  1613 |     - |simplero|   0 | 852 |  77 |  77 |   0 |  0 |   0 |   0 |      --      | 4.198585e+00 |    Inf | unknown
r 0.1s|     1 |     0 |  1621 |     - |simplero|   0 | 852 |  77 |  77 |   0 |  0 |   0 |   0 |      --      | 4.171628e+00 |    Inf | unknown
r 0.1s|     1 |     0 |  1647 |     - |simplero|   0 | 863 |  77 |  77 |   0 |  0 |   0 |   0 |      --      | 3.880109e+00 |    Inf | unknown
r 0.1s|     1 |     0 |  1655 |     - |simplero|   0 | 863 |  77 |  77 |   0 |  0 |   0 |   0 |      --      | 3.863392e+00 |    Inf | unknown
r 0.1s|     1 |     0 |  1661 |     - |simplero|   0 | 863 |  77 |  77 |   0 |  0 |   0 |   0 |      --      | 3.858275e+00 |    Inf | unknown
r 0.1s|     1 |     0 |  1699 |     - |simplero|   0 | 874 |  77 |  77 |   0 |  0 |   0 |   0 |      --      | 3.076294e+00 |    Inf | unknown
r 0.1s|     1 |     0 |  1704 |     - |simplero|   0 | 874 |  77 |  77 |   0 |  0 |   0 |   0 |      --      | 3.074992e+00 |    Inf | unknown
r 0.1s|     1 |     0 |  1731 |     - |simplero|   0 | 885 |  77 |  77 |   0 |  0 |   0 |   0 |      --      | 2.941192e+00 |    Inf | unknown
r 0.1s|     1 |     0 |  1746 |     - |simplero|   0 | 885 |  77 |  77 |   0 |  0 |   0 |   0 |      --      | 2.887513e+00 |    Inf | unknown
r 0.1s|     1 |     0 |  1749 |     - |simplero|   0 | 885 |  77 |  77 |   0 |  0 |   0 |   0 |      --      | 2.885193e+00 |    Inf | unknown
r 0.1s|     1 |     0 |  1785 |     - |simplero|   0 | 896 |  77 |  77 |   0 |  0 |   0 |   0 |      --      | 2.579060e+00 |    Inf | unknown
r 0.1s|     1 |     0 |  1789 |     - |simplero|   0 | 896 |  77 |  77 |   0 |  0 |   0 |   0 |      --      | 2.560994e+00 |    Inf | unknown
r 0.1s|     1 |     0 |  1815 |     - |simplero|   0 | 907 |  77 |  77 |   0 |  0 |   0 |   0 |      --      | 2.090726e+00 |    Inf | unknown
  0.1s|     1 |     0 |  1827 |     - |  4210k |   0 | 907 |  77 |  77 |   0 |  0 |   0 |   0 |      --      | 2.090726e+00 |    Inf | unknown
r 0.1s|     1 |     0 |  1827 |     - |simplero|   0 | 907 |  77 |  77 |   0 |  0 |   0 |   0 |      --      | 1.998393e+00 |    Inf | unknown
 time | node  | left  |LP iter|LP it/n|mem/heur|mdpt |vars |cons |rows |cuts |sepa|confs|strbr|  dualbound   | primalbound  |  gap   | compl. 
r 0.1s|     1 |     0 |  1833 |     - |simplero|   0 | 907 |  77 |  77 |   0 |  0 |   0 |   0 |      --      | 1.991924e+00 |    Inf | unknown
r 0.1s|     1 |     0 |  1836 |     - |simplero|   0 | 907 |  77 |  77 |   0 |  0 |   0 |   0 |      --      | 1.991060e+00 |    Inf | unknown
r 0.1s|     1 |     0 |  1838 |     - |simplero|   0 | 907 |  77 |  77 |   0 |  0 |   0 |   0 |      --      | 1.990425e+00 |    Inf | unknown
r 0.1s|     1 |     0 |  1871 |     - |simplero|   0 | 918 |  77 |  77 |   0 |  0 |   0 |   0 |      --      | 1.768419e+00 |    Inf | unknown
r 0.1s|     1 |     0 |  1891 |     - |simplero|   0 | 929 |  77 |  77 |   0 |  0 |   0 |   0 |      --      | 1.601898e+00 |    Inf | unknown
r 0.1s|     1 |     0 |  1902 |     - |simplero|   0 | 929 |  77 |  77 |   0 |  0 |   0 |   0 |      --      | 1.573171e+00 |    Inf | unknown
r 0.1s|     1 |     0 |  1948 |     - |simplero|   0 | 939 |  77 |  77 |   0 |  0 |   0 |   0 |      --      | 1.325581e+00 |    Inf | unknown
r 0.1s|     1 |     0 |  1958 |     - |simplero|   0 | 939 |  77 |  77 |   0 |  0 |   0 |   0 |      --      | 1.300000e+00 |    Inf | unknown
r 0.1s|     1 |     0 |  1961 |     - |simplero|   0 | 939 |  77 |  77 |   0 |  0 |   0 |   0 |      --      | 1.298539e+00 |    Inf | unknown
r 0.1s|     1 |     0 |  1977 |     - |simplero|   0 | 947 |  77 |  77 |   0 |  0 |   0 |   0 |      --      | 1.254844e+00 |    Inf | unknown
r 0.1s|     1 |     0 |  2001 |     - |simplero|   0 | 955 |  77 |  77 |   0 |  0 |   0 |   0 |      --      | 1.172312e+00 |    Inf | unknown
r 0.1s|     1 |     0 |  2018 |     - |simplero|   0 | 962 |  77 |  77 |   0 |  0 |   0 |   0 |      --      | 1.153846e+00 |    Inf | unknown
r 0.1s|     1 |     0 |  2035 |     - |simplero|   0 | 966 |  77 |  77 |   0 |  0 |   0 |   0 |      --      | 1.139535e+00 |    Inf | unknown
r 0.1s|     1 |     0 |  2041 |     - |simplero|   0 | 966 |  77 |  77 |   0 |  0 |   0 |   0 |      --      | 1.135593e+00 |    Inf | unknown
r 0.1s|     1 |     0 |  2054 |     - |simplero|   0 | 972 |  77 |  77 |   0 |  0 |   0 |   0 |      --      | 1.118421e+00 |    Inf | unknown
 time | node  | left  |LP iter|LP it/n|mem/heur|mdpt |vars |cons |rows |cuts |sepa|confs|strbr|  dualbound   | primalbound  |  gap   | compl. 
r 0.1s|     1 |     0 |  2063 |     - |simplero|   0 | 977 |  77 |  77 |   0 |  0 |   0 |   0 |      --      | 1.113821e+00 |    Inf | unknown
r 0.1s|     1 |     0 |  2065 |     - |simplero|   0 | 977 |  77 |  77 |   0 |  0 |   0 |   0 |      --      | 1.111857e+00 |    Inf | unknown
r 0.1s|     1 |     0 |  2075 |     - |simplero|   0 | 979 |  77 |  77 |   0 |  0 |   0 |   0 |      --      | 1.108963e+00 |    Inf | unknown
r 0.1s|     1 |     0 |  2076 |     - |simplero|   0 | 979 |  77 |  77 |   0 |  0 |   0 |   0 |      --      | 1.108787e+00 |    Inf | unknown
r 0.1s|     1 |     0 |  2083 |     - |simplero|   0 | 983 |  77 |  77 |   0 |  0 |   0 |   0 |      --      | 1.106599e+00 |    Inf | unknown
r 0.1s|     1 |     0 |  2086 |     - |simplero|   0 | 985 |  77 |  77 |   0 |  0 |   0 |   0 |      --      | 1.105263e+00 |    Inf | unknown
  0.1s|     1 |     0 |  2087 |     - |  5057k |   0 | 987 |  77 |  77 |   0 |  0 |   0 |   0 | 1.105263e+00 | 1.105263e+00 |   0.00%| unknown
  0.1s|     1 |     0 |  2087 |     - |  5057k |   0 | 987 |  77 |  77 |   0 |  0 |   0 |   0 | 1.105263e+00 | 1.105263e+00 |   0.00%| unknown

SCIP Status        : problem is solved [optimal solution found]
Solving Time (sec) : 0.12
Solving Nodes      : 1
Primal Bound       : +1.10526315789474e+00 (49 solutions)
Dual Bound         : +1.10526315789474e+00
Gap                : 0.00 %

written transformed problem to file <results_rootrelaxation/bin012_060_044.srr.lp>
written transformed problem to file <results_rootrelaxation/bin012_060_044.srr.cip>


SCIP version 8.0.3.5 [precision: 8 byte] [memory: block] [mode: optimized] [LP solver: Soplex 6.0.1.3] [GitHash: 438792519e]
Copyright (c) 2002-2023 Zuse Institute Berlin (ZIB)

External libraries: 
  Readline 8.1         GNU library for command line editing (gnu.org/s/readline)
  Soplex 6.0.1.3       Linear Programming Solver developed at Zuse Institute Berlin (soplex.zib.de) [GitHash: 713be0fe]
  CppAD 20180000.0     Algorithmic Differentiation of C++ algorithms developed by B. Bell (github.com/coin-or/CppAD)
  ZLIB 1.2.11          General purpose compression library by J. Gailly and M. Adler (zlib.net)
  bliss 0.77           Computing Graph Automorphism Groups by T. Junttila and P. Kaski (www.tcs.hut.fi/Software/bliss/)

user parameter file <scip.set> not found - using default parameters

srr/relaxation = TRUE

read problem <instances/bin012_060_044.srr>
============

Original problem: 
original problem has 0 variables (0 bin, 0 int, 0 impl, 0 cont) and 77 constraints

presolving:
presolving (1 rounds: 1 fast, 1 medium, 1 exhaustive):
 0 deleted vars, 0 deleted constraints, 0 added constraints, 0 tightened bounds, 0 added holes, 0 changed sides, 0 changed coefficients
 0 implications, 0 cliques
presolved problem has 0 variables (0 bin, 0 int, 0 impl, 0 cont) and 77 constraints
     77 constraints of type <linear>
Presolving Time: 0.00

 time | node  | left  |LP iter|LP it/n|mem/heur|mdpt |vars |cons |rows |cuts |sepa|confs|strbr|  dualbound   | primalbound  |  gap   | compl. 
  0.0s|     1 |     0 |     1 |     - |   710k |   0 |   1 |  77 |  77 |   0 |  0 |   0 |   0 |      --      |      --      |    Inf | unknown
r 0.0s|     1 |     0 |   937 |     - |simplero|   0 | 731 |  77 |  77 |   0 |  0 |   0 |   0 |      --      | 2.031792e+01 |    Inf | unknown
r 0.1s|     1 |     0 |   980 |     - |simplero|   0 | 742 |  77 |  77 |   0 |  0 |   0 |   0 |      --      | 1.965058e+01 |    Inf | unknown
r 0.1s|     1 |     0 |  1023 |     - |simplero|   0 | 753 |  77 |  77 |   0 |  0 |   0 |   0 |      --      | 1.883766e+01 |    Inf | unknown
r 0.1s|     1 |     0 |  1089 |     - |simplero|   0 | 764 |  77 |  77 |   0 |  0 |   0 |   0 |      --      | 1.652698e+01 |    Inf | unknown
r 0.1s|     1 |     0 |  1167 |     - |simplero|   0 | 775 |  77 |  77 |   0 |  0 |   0 |   0 |      --      | 1.352730e+01 |    Inf | unknown
r 0.1s|     1 |     0 |  1277 |     - |simplero|   0 | 786 |  77 |  77 |   0 |  0 |   0 |   0 |      --      | 1.121480e+01 |    Inf | unknown
r 0.1s|     1 |     0 |  1338 |     - |simplero|   0 | 797 |  77 |  77 |   0 |  0 |   0 |   0 |      --      | 9.575972e+00 |    Inf | unknown
r 0.1s|     1 |     0 |  1409 |     - |simplero|   0 | 808 |  77 |  77 |   0 |  0 |   0 |   0 |      --      | 8.010081e+00 |    Inf | unknown
r 0.1s|     1 |     0 |  1462 |     - |simplero|   0 | 819 |  77 |  77 |   0 |  0 |   0 |   0 |      --      | 6.612630e+00 |    Inf | unknown
r 0.1s|     1 |     0 |  1480 |     - |simplero|   0 | 819 |  77 |  77 |   0 |  0 |   0 |   0 |      --      | 6.483278e+00 |    Inf | unknown
r 0.1s|     1 |     0 |  1490 |     - |simplero|   0 | 819 |  77 |  77 |   0 |  0 |   0 |   0 |      --      | 6.468380e+00 |    Inf | unknown
r 0.1s|     1 |     0 |  1532 |     - |simplero|   0 | 830 |  77 |  77 |   0 |  0 |   0 |   0 |      --      | 5.280972e+00 |    Inf | unknown
r 0.1s|     1 |     0 |  1543 |     - |simplero|   0 | 830 |  77 |  77 |   0 |  0 |   0 |   0 |      --      | 5.245440e+00 |    Inf | unknown
r 0.1s|     1 |     0 |  1589 |     - |simplero|   0 | 841 |  77 |  77 |   0 |  0 |   0 |   0 |      --      | 4.647817e+00 |    Inf | unknown
 time | node  | left  |LP iter|LP it/n|mem/heur|mdpt |vars |cons |rows |cuts |sepa|confs|strbr|  dualbound   | primalbound  |  gap   | compl. 
r 0.1s|     1 |     0 |  1613 |     - |simplero|   0 | 852 |  77 |  77 |   0 |  0 |   0 |   0 |      --      | 4.198585e+00 |    Inf | unknown
r 0.1s|     1 |     0 |  1621 |     - |simplero|   0 | 852 |  77 |  77 |   0 |  0 |   0 |   0 |      --      | 4.171628e+00 |    Inf | unknown
r 0.1s|     1 |     0 |  1647 |     - |simplero|   0 | 863 |  77 |  77 |   0 |  0 |   0 |   0 |      --      | 3.880109e+00 |    Inf | unknown
r 0.1s|     1 |     0 |  1655 |     - |simplero|   0 | 863 |  77 |  77 |   0 |  0 |   0 |   0 |      --      | 3.863392e+00 |    Inf | unknown
r 0.1s|     1 |     0 |  1661 |     - |simplero|   0 | 863 |  77 |  77 |   0 |  0 |   0 |   0 |      --      | 3.858275e+00 |    Inf | unknown
r 0.1s|     1 |     0 |  1699 |     - |simplero|   0 | 874 |  77 |  77 |   0 |  0 |   0 |   0 |      --      | 3.076294e+00 |    Inf | unknown
r 0.1s|     1 |     0 |  1704 |     - |simplero|   0 | 874 |  77 |  77 |   0 |  0 |   0 |   0 |      --      | 3.074992e+00 |    Inf | unknown
r 0.1s|     1 |     0 |  1731 |     - |simplero|   0 | 885 |  77 |  77 |   0 |  0 |   0 |   0 |      --      | 2.941192e+00 |    Inf | unknown
r 0.1s|     1 |     0 |  1746 |     - |simplero|   0 | 885 |  77 |  77 |   0 |  0 |   0 |   0 |      --      | 2.887513e+00 |    Inf | unknown
r 0.1s|     1 |     0 |  1749 |     - |simplero|   0 | 885 |  77 |  77 |   0 |  0 |   0 |   0 |      --      | 2.885193e+00 |    Inf | unknown
r 0.1s|     1 |     0 |  1785 |     - |simplero|   0 | 896 |  77 |  77 |   0 |  0 |   0 |   0 |      --      | 2.579060e+00 |    Inf | unknown
r 0.1s|     1 |     0 |  1789 |     - |simplero|   0 | 896 |  77 |  77 |   0 |  0 |   0 |   0 |      --      | 2.560994e+00 |    Inf | unknown
r 0.1s|     1 |     0 |  1815 |     - |simplero|   0 | 907 |  77 |  77 |   0 |  0 |   0 |   0 |      --      | 2.090726e+00 |    Inf | unknown
  0.1s|     1 |     0 |  1827 |     - |  4210k |   0 | 907 |  77 |  77 |   0 |  0 |   0 |   0 |      --      | 2.090726e+00 |    Inf | unknown
r 0.1s|     1 |     0 |  1827 |     - |simplero|   0 | 907 |  77 |  77 |   0 |  0 |   0 |   0 |      --      | 1.998393e+00 |    Inf | unknown
 time | node  | left  |LP iter|LP it/n|mem/heur|mdpt |vars |cons |rows |cuts |sepa|confs|strbr|  dualbound   | primalbound  |  gap   | compl. 
r 0.1s|     1 |     0 |  1833 |     - |simplero|   0 | 907 |  77 |  77 |   0 |  0 |   0 |   0 |      --      | 1.991924e+00 |    Inf | unknown
r 0.1s|     1 |     0 |  1836 |     - |simplero|   0 | 907 |  77 |  77 |   0 |  0 |   0 |   0 |      --      | 1.991060e+00 |    Inf | unknown
r 0.1s|     1 |     0 |  1838 |     - |simplero|   0 | 907 |  77 |  77 |   0 |  0 |   0 |   0 |      --      | 1.990425e+00 |    Inf | unknown
r 0.1s|     1 |     0 |  1871 |     - |simplero|   0 | 918 |  77 |  77 |   0 |  0 |   0 |   0 |      --      | 1.768419e+00 |    Inf | unknown
r 0.1s|     1 |     0 |  1891 |     - |simplero|   0 | 929 |  77 |  77 |   0 |  0 |   0 |   0 |      --      | 1.601898e+00 |    Inf | unknown
r 0.1s|     1 |     0 |  1902 |     - |simplero|   0 | 929 |  77 |  77 |   0 |  0 |   0 |   0 |      --      | 1.573171e+00 |    Inf | unknown
r 0.1s|     1 |     0 |  1948 |     - |simplero|   0 | 939 |  77 |  77 |   0 |  0 |   0 |   0 |      --      | 1.325581e+00 |    Inf | unknown
r 0.1s|     1 |     0 |  1958 |     - |simplero|   0 | 939 |  77 |  77 |   0 |  0 |   0 |   0 |      --      | 1.300000e+00 |    Inf | unknown
r 0.1s|     1 |     0 |  1961 |     - |simplero|   0 | 939 |  77 |  77 |   0 |  0 |   0 |   0 |      --      | 1.298539e+00 |    Inf | unknown
r 0.1s|     1 |     0 |  1977 |     - |simplero|   0 | 947 |  77 |  77 |   0 |  0 |   0 |   0 |      --      | 1.254844e+00 |    Inf | unknown
r 0.1s|     1 |     0 |  2001 |     - |simplero|   0 | 955 |  77 |  77 |   0 |  0 |   0 |   0 |      --      | 1.172312e+00 |    Inf | unknown
r 0.1s|     1 |     0 |  2018 |     - |simplero|   0 | 962 |  77 |  77 |   0 |  0 |   0 |   0 |      --      | 1.153846e+00 |    Inf | unknown
r 0.1s|     1 |     0 |  2035 |     - |simplero|   0 | 966 |  77 |  77 |   0 |  0 |   0 |   0 |      --      | 1.139535e+00 |    Inf | unknown
r 0.1s|     1 |     0 |  2041 |     - |simplero|   0 | 966 |  77 |  77 |   0 |  0 |   0 |   0 |      --      | 1.135593e+00 |    Inf | unknown
r 0.1s|     1 |     0 |  2054 |     - |simplero|   0 | 972 |  77 |  77 |   0 |  0 |   0 |   0 |      --      | 1.118421e+00 |    Inf | unknown
 time | node  | left  |LP iter|LP it/n|mem/heur|mdpt |vars |cons |rows |cuts |sepa|confs|strbr|  dualbound   | primalbound  |  gap   | compl. 
r 0.1s|     1 |     0 |  2063 |     - |simplero|   0 | 977 |  77 |  77 |   0 |  0 |   0 |   0 |      --      | 1.113821e+00 |    Inf | unknown
r 0.1s|     1 |     0 |  2065 |     - |simplero|   0 | 977 |  77 |  77 |   0 |  0 |   0 |   0 |      --      | 1.111857e+00 |    Inf | unknown
r 0.1s|     1 |     0 |  2075 |     - |simplero|   0 | 979 |  77 |  77 |   0 |  0 |   0 |   0 |      --      | 1.108963e+00 |    Inf | unknown
r 0.1s|     1 |     0 |  2076 |     - |simplero|   0 | 979 |  77 |  77 |   0 |  0 |   0 |   0 |      --      | 1.108787e+00 |    Inf | unknown
r 0.1s|     1 |     0 |  2083 |     - |simplero|   0 | 983 |  77 |  77 |   0 |  0 |   0 |   0 |      --      | 1.106599e+00 |    Inf | unknown
r 0.1s|     1 |     0 |  2086 |     - |simplero|   0 | 985 |  77 |  77 |   0 |  0 |   0 |   0 |      --      | 1.105263e+00 |    Inf | unknown
  0.1s|     1 |     0 |  2087 |     - |  5057k |   0 | 987 |  77 |  77 |   0 |  0 |   0 |   0 | 1.105263e+00 | 1.105263e+00 |   0.00%| unknown
  0.1s|     1 |     0 |  2087 |     - |  5057k |   0 | 987 |  77 |  77 |   0 |  0 |   0 |   0 | 1.105263e+00 | 1.105263e+00 |   0.00%| unknown

SCIP Status        : problem is solved [optimal solution found]
Solving Time (sec) : 0.13
Solving Nodes      : 1
Primal Bound       : +1.10526315789474e+00 (49 solutions)
Dual Bound         : +1.10526315789474e+00
Gap                : 0.00 %

written transformed problem to file <results_rootrelaxation/bin012_060_044.srr.lp>
written transformed problem to file <results_rootrelaxation/bin012_060_044.srr.cip>

written solution information to file <results_rootrelaxation/bin012_060_044.srr.sol>



